(set-logic HORN)
(declare-datatypes ((Nat_0 0)) (((Z_0 ) (S_0 (unS_0 Nat_0)))))
(declare-fun diseqNat_0 (Nat_0 Nat_0) Bool)
(declare-fun unS_1 (Nat_0 Nat_0) Bool)
(declare-fun isZ_0 (Nat_0) Bool)
(declare-fun isS_0 (Nat_0) Bool)
(assert (forall ((x_65 Nat_0) (x_64 Nat_0))
	(=> (= x_65 (S_0 x_64))
	    (unS_1 x_64 x_65))))
(assert (isZ_0 Z_0))
(assert (forall ((x_66 Nat_0))
	(isS_0 (S_0 x_66))))
(assert (forall ((x_67 Nat_0))
	(diseqNat_0 Z_0 (S_0 x_67))))
(assert (forall ((x_68 Nat_0))
	(diseqNat_0 (S_0 x_68) Z_0)))
(assert (forall ((x_69 Nat_0) (x_70 Nat_0))
	(=> (diseqNat_0 x_69 x_70)
	    (diseqNat_0 (S_0 x_69) (S_0 x_70)))))
(declare-fun add_0 (Nat_0 Nat_0 Nat_0) Bool)
(declare-fun minus_0 (Nat_0 Nat_0 Nat_0) Bool)
(declare-fun le_0 (Nat_0 Nat_0) Bool)
(declare-fun ge_0 (Nat_0 Nat_0) Bool)
(declare-fun lt_0 (Nat_0 Nat_0) Bool)
(declare-fun gt_0 (Nat_0 Nat_0) Bool)
(declare-fun mult_0 (Nat_0 Nat_0 Nat_0) Bool)
(declare-fun div_0 (Nat_0 Nat_0 Nat_0) Bool)
(declare-fun mod_0 (Nat_0 Nat_0 Nat_0) Bool)
(assert (forall ((y_0 Nat_0))
	(add_0 y_0 Z_0 y_0)))
(assert (forall ((x_58 Nat_0) (y_0 Nat_0) (r_0 Nat_0))
	(=> (add_0 r_0 x_58 y_0)
	    (add_0 (S_0 r_0) (S_0 x_58) y_0))))
(assert (forall ((y_0 Nat_0))
	(minus_0 Z_0 Z_0 y_0)))
(assert (forall ((x_58 Nat_0) (y_0 Nat_0) (r_0 Nat_0))
	(=> (minus_0 r_0 x_58 y_0)
	    (minus_0 (S_0 r_0) (S_0 x_58) y_0))))
(assert (forall ((y_0 Nat_0))
	(le_0 Z_0 y_0)))
(assert (forall ((x_58 Nat_0) (y_0 Nat_0))
	(=> (le_0 x_58 y_0)
	    (le_0 (S_0 x_58) (S_0 y_0)))))
(assert (forall ((y_0 Nat_0))
	(ge_0 y_0 Z_0)))
(assert (forall ((x_58 Nat_0) (y_0 Nat_0))
	(=> (ge_0 x_58 y_0)
	    (ge_0 (S_0 x_58) (S_0 y_0)))))
(assert (forall ((y_0 Nat_0))
	(lt_0 Z_0 (S_0 y_0))))
(assert (forall ((x_58 Nat_0) (y_0 Nat_0))
	(=> (lt_0 x_58 y_0)
	    (lt_0 (S_0 x_58) (S_0 y_0)))))
(assert (forall ((y_0 Nat_0))
	(gt_0 (S_0 y_0) Z_0)))
(assert (forall ((x_58 Nat_0) (y_0 Nat_0))
	(=> (gt_0 x_58 y_0)
	    (gt_0 (S_0 x_58) (S_0 y_0)))))
(assert (forall ((y_0 Nat_0))
	(mult_0 Z_0 Z_0 y_0)))
(assert (forall ((x_58 Nat_0) (y_0 Nat_0) (r_0 Nat_0) (z_1 Nat_0))
	(=>	(and (mult_0 r_0 x_58 y_0)
			(add_0 z_1 r_0 y_0))
		(mult_0 z_1 (S_0 x_58) y_0))))
(assert (forall ((x_58 Nat_0) (y_0 Nat_0))
	(=> (lt_0 x_58 y_0)
	    (div_0 Z_0 x_58 y_0))))
(assert (forall ((x_58 Nat_0) (y_0 Nat_0) (r_0 Nat_0) (z_1 Nat_0))
	(=>	(and (ge_0 x_58 y_0)
			(minus_0 z_1 x_58 y_0)
			(div_0 r_0 z_1 y_0))
		(div_0 (S_0 r_0) x_58 y_0))))
(assert (forall ((x_58 Nat_0) (y_0 Nat_0))
	(=> (lt_0 x_58 y_0)
	    (mod_0 x_58 x_58 y_0))))
(assert (forall ((x_58 Nat_0) (y_0 Nat_0) (r_0 Nat_0) (z_1 Nat_0))
	(=>	(and (ge_0 x_58 y_0)
			(minus_0 z_1 x_58 y_0)
			(mod_0 r_0 z_1 y_0))
		(mod_0 r_0 x_58 y_0))))
(declare-fun and_0 (Bool Bool Bool) Bool)
(declare-fun or_0 (Bool Bool Bool) Bool)
(declare-fun hence_0 (Bool Bool Bool) Bool)
(declare-fun not_0 (Bool Bool) Bool)
(assert (and_0 false false false))
(assert (and_0 false true false))
(assert (and_0 false false true))
(assert (and_0 true true true))
(assert (or_0 false false false))
(assert (or_0 true true false))
(assert (or_0 true false true))
(assert (or_0 true true true))
(assert (hence_0 true false false))
(assert (hence_0 false true false))
(assert (hence_0 true false true))
(assert (hence_0 true true true))
(assert (not_0 true false))
(assert (not_0 false true))
(declare-datatypes ((MutInt_0 0)) (((mutInt_1 (curInt_0 Nat_0) (retInt_0 Nat_0)))))
(declare-fun diseqMutInt_0 (MutInt_0 MutInt_0) Bool)
(declare-fun curInt_1 (Nat_0 MutInt_0) Bool)
(declare-fun retInt_1 (Nat_0 MutInt_0) Bool)
(declare-fun ismutInt_0 (MutInt_0) Bool)
(assert (forall ((x_73 MutInt_0) (x_71 Nat_0) (x_72 Nat_0))
	(=> (= x_73 (mutInt_1 x_71 x_72))
	    (curInt_1 x_71 x_73))))
(assert (forall ((x_73 MutInt_0) (x_71 Nat_0) (x_72 Nat_0))
	(=> (= x_73 (mutInt_1 x_71 x_72))
	    (retInt_1 x_72 x_73))))
(assert (forall ((x_74 Nat_0) (x_75 Nat_0))
	(ismutInt_0 (mutInt_1 x_74 x_75))))
(assert (forall ((x_76 Nat_0) (x_77 Nat_0) (x_78 Nat_0) (x_79 Nat_0))
	(=> (diseqNat_0 x_76 x_78)
	    (diseqMutInt_0 (mutInt_1 x_76 x_77) (mutInt_1 x_78 x_79)))))
(assert (forall ((x_76 Nat_0) (x_77 Nat_0) (x_78 Nat_0) (x_79 Nat_0))
	(=> (diseqNat_0 x_77 x_79)
	    (diseqMutInt_0 (mutInt_1 x_76 x_77) (mutInt_1 x_78 x_79)))))
(declare-datatypes ((MutMutInt_0 0)) (((mutMutInt_1 (curMutInt_0 MutInt_0) (retMutInt_0 MutInt_0)))))
(declare-fun diseqMutMutInt_0 (MutMutInt_0 MutMutInt_0) Bool)
(declare-fun curMutInt_1 (MutInt_0 MutMutInt_0) Bool)
(declare-fun retMutInt_1 (MutInt_0 MutMutInt_0) Bool)
(declare-fun ismutMutInt_0 (MutMutInt_0) Bool)
(assert (forall ((x_82 MutMutInt_0) (x_80 MutInt_0) (x_81 MutInt_0))
	(=> (= x_82 (mutMutInt_1 x_80 x_81))
	    (curMutInt_1 x_80 x_82))))
(assert (forall ((x_82 MutMutInt_0) (x_80 MutInt_0) (x_81 MutInt_0))
	(=> (= x_82 (mutMutInt_1 x_80 x_81))
	    (retMutInt_1 x_81 x_82))))
(assert (forall ((x_83 MutInt_0) (x_84 MutInt_0))
	(ismutMutInt_0 (mutMutInt_1 x_83 x_84))))
(assert (forall ((x_85 MutInt_0) (x_86 MutInt_0) (x_87 MutInt_0) (x_88 MutInt_0))
	(=> (diseqMutInt_0 x_85 x_87)
	    (diseqMutMutInt_0 (mutMutInt_1 x_85 x_86) (mutMutInt_1 x_87 x_88)))))
(assert (forall ((x_85 MutInt_0) (x_86 MutInt_0) (x_87 MutInt_0) (x_88 MutInt_0))
	(=> (diseqMutInt_0 x_86 x_88)
	    (diseqMutMutInt_0 (mutMutInt_1 x_85 x_86) (mutMutInt_1 x_87 x_88)))))
(declare-fun main_0 (Bool) Bool)
(declare-fun main_1 (Nat_0 Nat_0 Nat_0 MutInt_0 MutInt_0 Bool Bool) Bool)
(declare-fun swapdec_0 (MutMutInt_0 MutMutInt_0) Bool)
(declare-fun main_2 (Bool Bool) Bool)
(declare-fun main_3 (Nat_0 Nat_0 Nat_0 MutInt_0 MutInt_0 Bool Bool Bool) Bool)
(declare-fun mayswapMutInt_0 (MutMutInt_0 MutMutInt_0) Bool)
(declare-fun mayswapMutInt_1 (MutMutInt_0 MutMutInt_0 Bool) Bool)
(declare-fun swapdec_1 (MutMutInt_0 MutMutInt_0 Bool) Bool)
(assert (forall ((x_0 Bool) (x_1 Nat_0) (x_2 Nat_0) (x_3 Nat_0) (x_4 Nat_0) (x_5 MutInt_0) (x_6 MutInt_0) (x_7 MutInt_0) (x_8 MutInt_0))
	(=>	(and (swapdec_0 (mutMutInt_1 (mutInt_1 x_1 x_3) x_6) (mutMutInt_1 (mutInt_1 x_2 x_4) x_8))
			(= x_7 x_8)
			(= x_5 x_6)
			(main_1 x_3 x_4 x_1 x_5 x_7 true x_0)
			(ge_0 x_1 x_3))
		(main_0 x_0))))
(assert (forall ((x_0 Bool) (x_1 Nat_0) (x_2 Nat_0) (x_3 Nat_0) (x_4 Nat_0) (x_5 MutInt_0) (x_6 MutInt_0) (x_7 MutInt_0) (x_8 MutInt_0))
	(=>	(and (swapdec_0 (mutMutInt_1 (mutInt_1 x_1 x_3) x_6) (mutMutInt_1 (mutInt_1 x_2 x_4) x_8))
			(= x_7 x_8)
			(= x_5 x_6)
			(main_1 x_3 x_4 x_1 x_5 x_7 false x_0)
			(lt_0 x_1 x_3))
		(main_0 x_0))))
(assert (forall ((x_9 Nat_0) (x_10 Nat_0) (x_11 Nat_0) (x_12 MutInt_0) (x_13 MutInt_0) (x_14 Bool) (x_89 Nat_0) (x_90 Nat_0) (x_91 Nat_0) (x_92 Nat_0))
	(=>	(and (= x_89 x_90)
			(= x_91 x_92)
			(main_2 true x_14)
			(retInt_1 x_89 x_12)
			(curInt_1 x_90 x_12)
			(retInt_1 x_91 x_13)
			(curInt_1 x_92 x_13))
		(main_1 x_9 x_10 x_11 x_12 x_13 false x_14))))
(assert (forall ((x_15 Nat_0) (x_16 Nat_0) (x_17 Nat_0) (x_18 MutInt_0) (x_19 MutInt_0) (x_20 Bool) (x_59 Nat_0))
	(=>	(and (main_3 x_15 x_16 x_17 x_18 x_19 true true x_20)
			(le_0 x_59 (S_0 (S_0 (S_0 Z_0))))
			(minus_0 x_59 x_17 x_15))
		(main_1 x_15 x_16 x_17 x_18 x_19 true x_20))))
(assert (forall ((x_15 Nat_0) (x_16 Nat_0) (x_17 Nat_0) (x_18 MutInt_0) (x_19 MutInt_0) (x_20 Bool) (x_60 Nat_0))
	(=>	(and (main_3 x_15 x_16 x_17 x_18 x_19 true false x_20)
			(gt_0 x_60 (S_0 (S_0 (S_0 Z_0))))
			(minus_0 x_60 x_17 x_15))
		(main_1 x_15 x_16 x_17 x_18 x_19 true x_20))))
(assert (forall ((x_21 Nat_0) (x_22 Nat_0) (x_23 Nat_0) (x_24 MutInt_0) (x_25 MutInt_0) (x_26 Bool) (x_27 Bool) (x_93 Nat_0) (x_94 Nat_0) (x_95 Nat_0) (x_96 Nat_0))
	(=>	(and (= x_93 x_94)
			(= x_95 x_96)
			(main_2 true x_27)
			(retInt_1 x_93 x_24)
			(curInt_1 x_94 x_24)
			(retInt_1 x_95 x_25)
			(curInt_1 x_96 x_25))
		(main_3 x_21 x_22 x_23 x_24 x_25 x_26 false x_27))))
(assert (forall ((x_28 Nat_0) (x_29 Nat_0) (x_30 Nat_0) (x_31 MutInt_0) (x_32 MutInt_0) (x_33 Bool) (x_34 Bool) (x_97 Nat_0) (x_98 Nat_0) (x_99 Nat_0) (x_100 Nat_0))
	(=>	(and (= x_97 x_98)
			(= x_99 x_100)
			(main_2 false x_34)
			(retInt_1 x_97 x_31)
			(curInt_1 x_98 x_31)
			(retInt_1 x_99 x_32)
			(curInt_1 x_100 x_32))
		(main_3 x_28 x_29 x_30 x_31 x_32 x_33 true x_34))))
(assert (forall ((x_35 Bool))
	(=> (= x_35 false)
	    (main_2 false x_35))))
(assert (forall ((x_36 Bool))
	(=> (= x_36 true)
	    (main_2 true x_36))))
(assert (forall ((x_37 MutMutInt_0) (x_38 MutMutInt_0) (x_39 Bool))
	(=> (mayswapMutInt_1 x_37 x_38 x_39)
	    (mayswapMutInt_0 x_37 x_38))))
(assert (forall ((x_40 MutMutInt_0) (x_41 MutMutInt_0) (x_101 MutInt_0) (x_102 MutInt_0) (x_103 MutInt_0) (x_104 MutInt_0))
	(=>	(and (= x_101 x_102)
			(= x_103 x_104)
			(retMutInt_1 x_101 x_41)
			(curMutInt_1 x_102 x_41)
			(retMutInt_1 x_103 x_40)
			(curMutInt_1 x_104 x_40))
		(mayswapMutInt_1 x_40 x_41 false))))
(assert (forall ((x_42 MutMutInt_0) (x_43 MutMutInt_0) (x_44 MutInt_0) (x_45 MutInt_0) (x_105 MutInt_0) (x_106 MutInt_0) (x_107 MutInt_0) (x_108 MutInt_0))
	(=>	(and (= x_45 x_105)
			(= x_44 x_106)
			(= x_107 x_45)
			(= x_108 x_44)
			(curMutInt_1 x_105 x_42)
			(curMutInt_1 x_106 x_43)
			(retMutInt_1 x_107 x_43)
			(retMutInt_1 x_108 x_42))
		(mayswapMutInt_1 x_42 x_43 true))))
(assert (forall ((x_46 MutMutInt_0) (x_47 MutMutInt_0) (x_48 Bool) (x_49 MutInt_0) (x_50 MutInt_0) (x_109 MutInt_0) (x_110 MutInt_0) (x_111 MutInt_0) (x_112 MutInt_0))
	(=>	(and (mayswapMutInt_0 (mutMutInt_1 x_109 x_49) (mutMutInt_1 x_110 x_50))
			(swapdec_1 (mutMutInt_1 x_49 x_111) (mutMutInt_1 x_50 x_112) x_48)
			(curMutInt_1 x_109 x_46)
			(curMutInt_1 x_110 x_47)
			(retMutInt_1 x_111 x_46)
			(retMutInt_1 x_112 x_47))
		(swapdec_0 x_46 x_47))))
(assert (forall ((x_51 MutMutInt_0) (x_52 MutMutInt_0) (x_53 MutInt_0) (x_54 MutInt_0) (a_3 MutInt_0) (a_4 MutInt_0) (x_61 Nat_0) (x_62 Nat_0) (x_113 MutInt_0) (x_114 MutInt_0) (x_115 MutInt_0) (x_116 Nat_0) (x_117 MutInt_0) (x_118 Nat_0) (x_119 MutInt_0) (x_120 Nat_0) (x_121 MutInt_0) (x_122 Nat_0))
	(=>	(and (swapdec_0 (mutMutInt_1 a_3 x_53) (mutMutInt_1 a_4 x_54))
			(= x_113 x_54)
			(= x_114 x_53)
			(= a_3 (mutInt_1 x_61 x_116))
			(= a_4 (mutInt_1 x_62 x_118))
			(minus_0 x_61 x_120 (S_0 Z_0))
			(minus_0 x_62 x_122 (S_0 (S_0 Z_0)))
			(retMutInt_1 x_113 x_52)
			(retMutInt_1 x_114 x_51)
			(curMutInt_1 x_115 x_51)
			(retInt_1 x_116 x_115)
			(curMutInt_1 x_117 x_52)
			(retInt_1 x_118 x_117)
			(curMutInt_1 x_119 x_51)
			(curInt_1 x_120 x_119)
			(curMutInt_1 x_121 x_52)
			(curInt_1 x_122 x_121))
		(swapdec_1 x_51 x_52 false))))
(assert (forall ((x_55 MutMutInt_0) (x_56 MutMutInt_0) (x_123 MutInt_0) (x_124 MutInt_0) (x_125 MutInt_0) (x_126 MutInt_0))
	(=>	(and (= x_123 x_124)
			(= x_125 x_126)
			(retMutInt_1 x_123 x_55)
			(curMutInt_1 x_124 x_55)
			(retMutInt_1 x_125 x_56)
			(curMutInt_1 x_126 x_56))
		(swapdec_1 x_55 x_56 true))))
(assert (forall ((x_57 Nat_0))
	(=> (main_0 true)
	    false)))
(check-sat)
